;; sequence(s): A56543
;; terms: 1 1 2 7 34 203 1420 11359 102230 1022299 11245288 134943455 1754264914 24559708795 368395631924 5894330110783 100203611883310 1803665013899579 34269635264092000 685392705281839999
;; small program: loop(((x * y) - 1) + x, x, 1)
;; fast program: (loop((x - 1) * y, x, 1 + 2) * (1 + x)) - (2 + x)
(set-logic UFNIA)
(declare-fun f0 (Int Int) Int)
(declare-fun g0 (Int) Int)
(declare-fun h0 () Int)
(declare-fun u0 (Int Int) Int)
(declare-fun v0 (Int) Int)
(declare-fun small (Int) Int)
(declare-fun f1 (Int Int) Int)
(declare-fun g1 (Int) Int)
(declare-fun h1 () Int)
(declare-fun u1 (Int Int) Int)
(declare-fun v1 (Int) Int)
(declare-fun fast (Int) Int)
(assert (forall ((x Int) (y Int)) (= (f0 x y) (+ (- (* x y) 1) x))))
(assert (forall ((x Int)) (= (g0 x) x)))
(assert (= h0 1))
(assert (forall ((x Int) (y Int)) (= (u0 x y) (ite (<= x 0) y (f0 (u0 (- x 1) y) x)))))
(assert (forall ((x Int)) (= (v0 x) (u0 (g0 x) h0))))
(assert (forall ((x Int)) (= (small x) (v0 x))))
(assert (forall ((x Int) (y Int)) (= (f1 x y) (* (- x 1) y))))
(assert (forall ((x Int)) (= (g1 x) x)))
(assert (= h1 (+ 1 2)))
(assert (forall ((x Int) (y Int)) (= (u1 x y) (ite (<= x 0) y (f1 (u1 (- x 1) y) x)))))
(assert (forall ((x Int)) (= (v1 x) (u1 (g1 x) h1))))
(assert (forall ((x Int)) (= (fast x) (- (* (v1 x) (+ 1 x)) (+ 2 x)))))
(assert (exists ((c Int)) (and (>= c 0) (not (= (small c) (fast c))))))
(check-sat)
